sat-intances/14.param.solution
language ESSENCE' 1.0
letting actionFrom be [0, 0, 2, 0, 3, 2, 3, 0, 0, 3, 2, 3, 2, 3, 3, 2]
letting actionTo be [2, 2, 3, 2, 2, 3, 2, 2, 2, 2, 1, 2, 1, 2, 2, 1]
letting actionTypes be [1, 1, 4, 1, 9, 4, 9, 1, 1, 3, 2, 9, 2, 5, 8, 2]
letting pointers be [[0, 1, 2, 2, 3, 3, 3, 3, 4, 5, 5, 5, 5, 5, 5, 5, 5;int(0..16)], 
[0, 0, 0, 0, 0, 0, 0, 0, 0, 0, 0, 1, 1, 2, 2, 2, 3;int(0..16)];int(0..1)]
letting statePlaces be [[-1, 1, 2, 2, 3, 6, 6, 36, 0, 12, 6, 6, 36, 36, 42, 5, 5;int(0..16)], 
[-1, -1, -1, 2, 2, 2, 6, 6, 6, 6, 6, 6, 6, 6, 6, 5, 5;int(0..16)];int(2..3)]
